headline_hunt/bets/cascade_aux_encoding/comparisons/cadical_50k_2026-04-25/bit19_aux_expose_sr61_n32_bit19_m51ca0b34_fill55555555.log
c --- [ banner ] -------------------------------------------------------------
c 
c CaDiCaL SAT Solver
c Copyright (c) 2016-2025
c A. Biere, M. Fleury, N. Froleyks, K. Fazekas, F. Pollitt, T. Faller
c JKU Linz, University of Freiburg, TU Wien
c 
c Version 3.0.0
c Apple clang version 17.0.0 (clang-1700.6.3.2) -Wall -Wextra -O3 -DNDEBUG -DNCLOSEFROM
c Tue Dec 23 21:53:38 UTC 2025 Darwin Tahoe-arm64.local 25.2.0 arm64
c 
c --- [ limit ] --------------------------------------------------------------
c 
c setting conflict limit to 50000 conflicts (due to '50000')
c 
c --- [ parsing input ] ------------------------------------------------------
c 
c reading DIMACS file from 'headline_hunt/bets/cascade_aux_encoding/cnfs/aux_expose_sr61_n32_bit19_m51ca0b34_fill55555555.cnf'
c opening file to read 'headline_hunt/bets/cascade_aux_encoding/cnfs/aux_expose_sr61_n32_bit19_m51ca0b34_fill55555555.cnf'
c found 'p cnf 12850 53838' header
c parsed 53838 clauses in 0.01 seconds process time
c 
c --- [ options ] ------------------------------------------------------------
c 
c   --seed=5                       (different from default '0')
c 
c --- [ solving ] ------------------------------------------------------------
c 
c time measured in process time since initialization
c 
c  seconds  reduction conflicts       size tier2       variables
c         MB    restarts   redundant    glue  trail         remaining
c          level     rate       size/glu tier1  irredundant
c 
c *  0.01  0  0 0   0  0    0    0 0.0 0 0 2 6  0% 53773 12849 100%
c (  0.01  0  0 0   0  0    0    0 0.0 0 0 2 6  0% 53773 12849 100%
c .  0.01  0  0 0   0  0    0    0 0.0 0 0 2 6  0% 53773 12849 100%
c c  0.03  0  0 0   0  0    0    0 0.0 0 0 2 6  0% 51273 12209 95%
c d  0.03  0  0 0   0  0    0    0 0.0 0 0 2 6  0% 46565 10879 85%
c 2  0.03  0  0 0   0  0    0    0 0.0 0 0 2 6  0% 46501 10879 85%
c f  0.05  0  0 0   0  0    0    0 0.0 0 0 2 6  0% 46435 10945 85%
c e  0.06  0  0 0   0  0    0    0 0.0 0 0 2 6  0% 43266 7604 59%
c s  0.06  0  0 0   0  0    0    0 0.0 0 0 2 6  0% 43258 7604 59%
c s  0.07  0  0 0   0  0    0    0 0.0 0 0 2 6  0% 43248 7604 59%
c P  0.07  0  0 0   0  0    0    0 0.0 0 0 2 6  0% 43248 7604 59%
c )  0.07  0  0 0   0  0    0    0 0.0 0 0 2 6  0% 43248 7604 59%
c {  0.07  0  0 0   0  0    0    0 0.0 0 0 2 6  0% 43248 7604 59%
c -  0.08  0 957 1  29 68  300  224 1.4 5 3 2 6 17% 43248 7604 59%
c -  0.08  0 481 2  81 46  734  578 1.5 5 4 2 6 14% 43248 7604 59%
c }  0.08  0 382 2 110 38 1001  786 1.5 5 4 2 6 13% 43248 7604 59%
c [  0.08  0  0 2 110  0 1001  786 0.0 0 0 2 6  0% 43248 7604 59%
c O  0.08  0 520 2 110 521 1002  787 1.8 163 89 2 6 46% 43248 7604 59%
c ]  0.09  0 512 2 110 16 1035  819 2.0 172 87 2 6 43% 43248 7604 59%
c {  0.09  0 382 2 110 38 1035  819 1.5 5 4 2 6 13% 43248 7604 59%
c 
c  seconds   reduction conflicts       size tier2      variables
c         MB     restarts   redundant    glue  trail        remaining
c           level     rate       size/glu tier1  irredundant
c 
c -  0.10  0 320 3 163 34 1412  993 1.5 6 4 2 6 12% 43248 7604 59%
c 2  0.10  0 222 3 171 23 2237 1569 1.6 6 3 2 6 10% 43186 7604 59%
c d  0.10  0 222 3 171 23 2237 1377 1.6 6 3 2 6 10% 43066 7498 58%
c p  0.10  0 222 3 171 23 2237 1378 1.6 6 3 2 6 10% 43066 7498 58%
c c  0.12  0 222 3 171 23 2237 1378 1.6 6 3 2 6 10% 42915 7498 58%
c d  0.12  0 222 3 171 23 2237 1285 1.6 6 3 2 6 10% 42841 7461 58%
c 2  0.12  0 222 3 171 23 2237 1283 1.6 6 3 2 6 10% 42827 7461 58%
c -  0.12  0 214 4 194 23 2352 1157 1.6 6 4 2 6  4% 42827 7461 58%
c O  0.13  0 185 4 267 20 3003 1643 1.6 6 4 2 6  6% 42827 7461 58%
c -  0.13  0 171 5 328 19 3564 1849 1.6 6 4 2 6  6% 42827 7461 58%
c s  0.14  0 160 5 418 19 4131 2277 1.6 6 4 2 6  6% 42810 7461 58%
c t  0.14  0 160 5 418 19 4131 2277 1.6 6 4 2 6  6% 42807 7461 58%
c e  0.16  0 160 5 418 19 4131 2156 1.6 6 4 2 6  6% 42644 6972 54%
c ^  0.16  0 160 5 418 19 4131 2156 1.6 6 4 2 6  6% 42644 6972 54%
c d  0.17  0 150 5 524 19 4739 2238 1.6 6 4 2 6  6% 42529 6925 54%
c c  0.18  0 150 5 524 19 4739 2238 1.6 6 4 2 6  6% 42433 6925 54%
c d  0.18  0 150 5 524 19 4739 2173 1.6 6 4 2 6  6% 42409 6913 54%
c =  0.19  0 150 5 524 19 4739 2050 1.6 6 4 2 6  6% 42330 6881 54%
c -  0.19  0 146 6 558 19 5057 1725 1.6 6 4 2 3  6% 42325 6881 54%
c #  0.20  0 135 6 630 17 6011 2388 1.6 6 4 2 3  6% 42323 6881 54%
c 
c  seconds   reduction conflicts       size tier2      variables
c         MB     restarts   redundant    glue  trail        remaining
c           level     rate       size/glu tier1  irredundant
c 
c -  0.20  0 127 7 697 17 6835 2472 1.6 6 4 2 3  6% 42323 6881 54%
c }  0.20  0 127 7 698 16 6916 2537 1.6 6 4 2 3  6% 42323 6881 54%
c [  0.20  0 512 7 698 16 6916 2537 2.0 172 87 2 6 74% 42323 6881 54%
c d  0.21  0 143 7 698  4 7345 2530 2.0 40 20 10 28 20% 42244 6823 53%
c c  0.22  0 143 7 698  4 7345 2530 2.0 40 20 10 28 20% 42082 6823 53%
c d  0.22  0 143 7 698  4 7345 2423 2.0 40 20 10 28 20% 42032 6798 53%
c 2  0.22  0 143 7 698  4 7345 2421 2.0 40 20 10 28 20% 42020 6798 53%
c ]  0.26  0 129 7 698  3 7532 2602 2.9 70 24 10 28 27% 42020 6798 53%
c {  0.26  0 127 7 698 16 7532 2602 1.6 6 4 2 3  6% 42020 6798 53%
c }  0.34  0 123 7 866 17 8212 3207 2.0 14 7 2 3  9% 42020 6798 53%
c [  0.34  0 129 7 866  3 8212 3207 2.9 70 24 10 28 27% 42020 6798 53%
c ]  0.44  0 119 7 866  3 8508 3484 2.9 97 33 10 28 37% 42020 6798 53%
c {  0.44  0 123 7 866 17 8508 3484 2.0 14 7 2 3  9% 42020 6798 53%
c -  0.46  0 120 8 955 17 8901 2668 2.0 15 7 2 3  9% 42020 6798 53%
c }  0.58  0 119 8 1053 16 9292 3047 2.1 22 10 1 2 13% 42020 6798 53%
c [  0.58  0 119 8 1053  3 9292 3047 2.9 97 33 10 28 37% 42020 6798 53%
c ]  0.77  0 109 8 1054  2 9862 3592 2.8 114 41 10 28 43% 42020 6798 53%
c {  0.77  0 119 8 1054 16 9862 3592 2.1 22 10 1 2 13% 42020 6798 53%
c B  0.83  0 119 8 1095 16 10012 3737 2.2 26 12 1 2 14% 42020 6798 53%
c p  0.84  0 119 8 1102 16 10042 4741 2.2 26 12 1 2 14% 42020 6798 53%
c 
c  seconds   reductions  conflicts       size   tier2      variables
c         MB     restarts     redundant     glue   trail        remaining
c           level      rate        size/glue  tier1  irredundant
c 
c =  0.89  0 119 8 1102 16 10042 4741 2.2 26 12 1 2 14% 42019 6794 53%
c u  0.90  0 119 8 1102 16 10042 3801 2.2 26 12 1 2 14% 41961 6794 53%
c v  0.90  0 119 8 1102 16 10042 3623 2.2 26 12 1 2 14% 41961 6794 53%
c w  0.90  0 119 8 1102 16 10042 3561 2.2 26 12 1 2 14% 41961 6794 53%
c x  0.91  0 119 8 1102 16 10042 3561 2.2 26 12 1 2 14% 41676 6794 53%
c 2  0.91  0 119 8 1102 16 10042 3560 2.2 26 12 1 2 14% 41676 6794 53%
c f  0.93  0 119 8 1102 16 10042 3506 2.2 26 12 1 2 14% 41669 6821 53%
c }  1.09  0 116 8 1336 16 10961 4338 2.3 36 16 1 2 18% 41669 6821 53%
c [  1.09  0 109 8 1336  2 10961 4338 2.8 114 41 10 28 43% 41669 6821 53%
c -  1.19  0 108 9 1336  2 11260 2199 2.7 122 45 10 28 47% 41669 6821 53%
c ]  1.35  0 108 9 1337  2 11829 2698 2.4 125 52 10 28 48% 41669 6821 53%
c {  1.35  0 116 9 1337 16 11829 2698 2.3 36 16 1 2 18% 41669 6821 53%
c }  1.68  0 115 9 1571 15 12777 3623 2.3 51 22 1 2 24% 41669 6821 53%
c [  1.68  0 108 9 1571  2 12777 3623 2.4 125 52 10 28 48% 41669 6821 53%
c p  1.70  0 108 9 1571  2 12827 4359 2.4 126 53 10 28 49% 41653 6819 53%
c =  1.75  0 108 9 1571  2 12827 4320 2.4 126 53 10 28 49% 41635 6789 53%
c u  1.76  0 108 9 1571  2 12827 4040 2.4 126 53 10 28 49% 41635 6789 53%
c v  1.76  0 108 9 1571  2 12827 3959 2.4 126 53 10 28 49% 41635 6789 53%
c w  1.78  0 108 9 1571  2 12827 3887 2.4 126 53 10 28 49% 41635 6789 53%
c t  1.78  0 108 9 1571  2 12827 3887 2.4 126 53 10 28 49% 41634 6789 53%
c 
c  seconds   reductions  conflicts        size    tier2       variables
c         MB     restarts     redundant      glue     trail        remaining
c           level      rate        size/glue   tier1    irredundant
c 
c 2  1.78  0 108 9 1571  2 12827 3884 2.4 126 53 10 28 49% 41634 6789 53%
c f  1.79  0 108 9 1571  2 12827 3880 2.4 126 53 10 28 49% 41593 6810 53%
c -  1.98  0 106 10 1571  2 13912 2282 2.2 116 52 1 2 44% 41593 6810 53%
c s  2.15  0 105 10 1571  2 14582 2885 2.2 117 54 1 2 44% 41050 6810 53%
c t  2.16  0 105 10 1571  2 14582 2885 2.2 117 54 1 2 44% 41043 6810 53%
c e  2.17  0 105 10 1571  2 14582 2035 2.2 117 54 1 2 44% 40999 6583 51%
c s  2.17  0 105 10 1571  2 14582 1983 2.2 117 54 1 2 44% 40908 6583 51%
c e  2.18  0 105 10 1571  2 14582 1972 2.2 117 54 1 2 44% 40828 6574 51%
c ]  2.21  0 105 10 1572  2 14674 2056 2.2 117 54 1 2 54% 40828 6574 51%
c {  2.21  0 115 10 1572 15 14674 2056 2.3 51 22 1 2 28% 40828 6574 51%
c W  2.30  0 115 10 1663 15 15013 2369 2.3 52 23 1 2 28% 40828 6574 51%
c 2  2.46  0 114 10 1810 15 15693 2972 2.4 59 25 1 2 30% 40828 6574 51%
c p  2.47  0 114 10 1810 15 15693 3512 2.4 59 25 1 2 30% 40822 6572 51%
c c  2.48  0 114 10 1810 15 15693 3512 2.4 59 25 1 2 30% 40773 6572 51%
c =  2.51  0 114 10 1810 15 15693 3511 2.4 59 25 1 2 30% 40761 6564 51%
c u  2.52  0 114 10 1810 15 15693 3361 2.4 59 25 1 2 30% 40761 6564 51%
c v  2.52  0 114 10 1810 15 15693 3262 2.4 59 25 1 2 30% 40761 6564 51%
c w  2.53  0 114 10 1810 15 15693 3239 2.4 59 25 1 2 30% 40761 6564 51%
c x  2.53  0 114 10 1810 15 15693 3239 2.4 59 25 1 2 30% 40760 6564 51%
c f  2.54  0 114 10 1810 15 15693 3217 2.4 59 25 1 2 30% 40704 6603 51%
c 
c  seconds   reductions   conflicts       size   tier2      variables
c         MB      restarts     redundant     glue   trail        remaining
c           level       rate        size/glue  tier1  irredundant
c 
c }  2.77  0 112 10 2036 15 16763 4231 2.4 66 27 1 2 32% 40704 6603 51%
c [  2.77  0 105 10 2036  2 16763 4231 2.2 117 54 1 2 54% 40704 6603 51%
c -  2.79  0 105 11 2036  2 16860 2168 2.2 118 54 1 2 52% 40704 6603 51%
c ]  3.29  0 105 11 2037  1 18307 3565 2.4 136 58 1 2 70% 40704 6603 51%
c {  3.29  0 112 11 2037 15 18307 3565 2.4 66 27 1 2 32% 40704 6603 51%
c p  3.34  0 111 11 2084 15 18633 4408 2.4 67 27 1 2 33% 40689 6601 51%
c c  3.35  0 111 11 2084 15 18633 4408 2.4 67 27 1 2 33% 40683 6601 51%
c =  3.39  0 111 11 2084 15 18633 4341 2.4 67 27 1 2 33% 40681 6489 50%
c u  3.40  0 111 11 2084 15 18633 4164 2.4 67 27 1 2 33% 40395 6489 50%
c v  3.40  0 111 11 2084 15 18633 4050 2.4 67 27 1 2 33% 40395 6489 50%
c w  3.42  0 111 11 2084 15 18633 4038 2.4 67 27 1 2 33% 40395 6489 50%
c t  3.42  0 111 11 2084 15 18633 4038 2.4 67 27 1 2 33% 40388 6489 50%
c 2  3.42  0 111 11 2084 15 18633 4032 2.4 67 27 1 2 33% 40386 6489 50%
c f  3.43  0 111 11 2084 15 18633 4026 2.4 67 27 1 2 33% 40386 6492 51%
c -  3.60  0 110 12 2239 14 20106 2584 2.4 69 28 1 2 33% 40386 6492 51%
c F  3.93  0 109 12 2466 13 21014 3491 2.6 79 31 1 2 36% 40386 6492 51%
c }  3.98  0 109 12 2514 13 21264 3726 2.6 80 31 1 2 37% 40386 6492 51%
c [  3.98  0 105 12 2514  1 21264 3726 2.4 136 58 1 2 70% 40386 6492 51%
c p  4.10  0 105 12 2514  1 21644 4596 2.4 137 57 1 2 67% 40386 6492 51%
c =  4.15  0 105 12 2514  1 21644 4558 2.4 137 57 1 2 67% 40308 6184 48%
c 
c  seconds   reductions   conflicts        size   tier2      variables
c         MB      restarts     redundant      glue   trail        remaining
c           level       rate        size/glue   tier1  irredundant
c 
c u  4.16  0 105 12 2514  1 21644 4268 2.4 137 57 1 2 67% 39996 6184 48%
c v  4.16  0 105 12 2514  1 21644 4127 2.4 137 57 1 2 67% 39996 6184 48%
c w  4.17  0 105 12 2514  1 21644 4064 2.4 137 57 1 2 67% 39996 6184 48%
c 2  4.17  0 105 12 2514  1 21644 4058 2.4 137 57 1 2 67% 39985 6184 48%
c f  4.18  0 105 12 2514  1 21644 4055 2.4 137 57 1 2 67% 39900 6227 48%
c ]  4.74  0 104 12 2515  1 23563 5881 2.4 150 62 1 2 65% 39900 6227 48%
c {  4.74  0 109 12 2515 13 23563 5881 2.6 80 31 1 2 36% 39900 6227 48%
c -  4.76  0 109 13 2532 13 23650 2634 2.6 80 31 1 2 36% 39900 6227 48%
c p  4.91  0 108 13 2714 13 24721 4195 2.6 83 32 1 2 37% 39900 6227 48%
c =  4.95  0 108 13 2714 13 24721 4195 2.6 83 32 1 2 37% 39895 6176 48%
c u  4.96  0 108 13 2714 13 24721 4048 2.6 83 32 1 2 37% 39891 6176 48%
c v  4.96  0 108 13 2714 13 24721 3917 2.6 83 32 1 2 37% 39891 6176 48%
c w  4.97  0 108 13 2714 13 24721 3884 2.6 83 32 1 2 37% 39891 6176 48%
c x  4.98  0 108 13 2714 13 24721 3883 2.6 83 32 1 2 37% 39530 6176 48%
c t  4.98  0 108 13 2714 13 24721 3883 2.6 83 32 1 2 37% 39507 6176 48%
c 2  4.98  0 108 13 2714 13 24721 3867 2.6 83 32 1 2 37% 39500 6176 48%
c f  4.98  0 108 13 2714 13 24721 3863 2.6 83 32 1 2 37% 39496 6179 48%
c -  5.21  0 106 14 2875 12 27494 3121 2.6 81 32 1 2 35% 39496 6179 48%
c p  5.24  0 106 14 2918 12 27860 4008 2.6 81 32 1 2 35% 39496 6179 48%
c f  5.28  0 106 14 2918 12 27860 4006 2.6 81 32 1 2 35% 39496 6180 48%
c 
c  seconds   reductions   conflicts       size   tier2      variables
c         MB      restarts     redundant     glue   trail        remaining
c           level       rate        size/glue  tier1  irredundant
c 
c B  5.30  0 106 14 2948 12 28018 4147 2.6 81 32 1 2 35% 39496 6180 48%
c s  5.45  0 105 14 3077 11 30391 6341 2.5 80 32 1 2 33% 37260 6180 48%
c t  5.45  0 105 14 3077 11 30391 6341 2.5 80 32 1 2 33% 37258 6180 48%
c e  5.46  0 105 14 3077 11 30391 5525 2.5 80 32 1 2 33% 34560 5713 44%
c s  5.46  0 105 14 3077 11 30391 5515 2.5 80 32 1 2 33% 34535 5713 44%
c e  5.46  0 105 14 3077 11 30391 5515 2.5 80 32 1 2 33% 34536 5712 44%
c }  5.60  0 105 14 3256 11 31531 6586 2.5 81 32 1 2 37% 34536 5712 44%
c [  5.60  0 104 14 3256  1 31531 6586 2.4 150 62 1 2 76% 34536 5712 44%
c -  5.63  0 104 15 3256  1 31641 3604 2.4 151 62 1 2 76% 34536 5712 44%
c 2  5.63  0 104 15 3256  1 31641 3601 2.4 151 62 1 2 76% 34536 5712 44%
c p  5.63  0 104 15 3256  1 31641 3761 2.4 151 62 1 2 76% 34536 5712 44%
c u  5.63  0 104 15 3256  1 31641 3288 2.4 151 62 1 2 76% 34534 5712 44%
c v  5.64  0 104 15 3256  1 31641 3050 2.4 151 62 1 2 76% 34534 5712 44%
c w  5.64  0 104 15 3256  1 31641 3050 2.4 151 62 1 2 76% 34534 5712 44%
c t  5.64  0 104 15 3256  1 31641 3050 2.4 151 62 1 2 76% 34532 5712 44%
c f  5.64  0 104 15 3256  1 31641 3044 2.4 151 62 1 2 75% 34496 5733 45%
c ]  6.56  0 106 15 3257  1 35724 6839 2.5 168 66 1 2 69% 34496 5733 45%
c {  6.56  0 105 15 3257 11 35724 6839 2.5 81 32 1 2 37% 34496 5733 45%
c W  6.67  0 105 15 3294 11 36020 7121 2.5 81 32 1 2 37% 34496 5733 45%
c -  6.67  0 105 16 3295 11 36087 3556 2.5 81 32 1 2 37% 34496 5733 45%
c 
c  seconds   reductions   conflicts       size   tier2      variables
c         MB      restarts     redundant     glue   trail        remaining
c           level       rate        size/glue  tier1  irredundant
c 
c p  6.68  0 105 16 3295 11 36087 4028 2.5 81 32 1 2 37% 34496 5733 45%
c =  6.73  0 105 16 3295 11 36087 4027 2.5 81 32 1 2 37% 34478 5712 44%
c u  6.73  0 105 16 3295 11 36087 3861 2.5 81 32 1 2 37% 34478 5712 44%
c v  6.73  0 105 16 3295 11 36087 3656 2.5 81 32 1 2 37% 34478 5712 44%
c w  6.73  0 105 16 3295 11 36087 3638 2.5 81 32 1 2 37% 34478 5712 44%
c x  6.74  0 105 16 3295 11 36087 3638 2.5 81 32 1 2 37% 34408 5712 44%
c t  6.74  0 105 16 3295 11 36087 3638 2.5 81 32 1 2 37% 34406 5712 44%
c 2  6.74  0 105 16 3295 11 36087 3617 2.5 81 32 1 2 37% 34402 5712 44%
c f  6.74  0 105 16 3295 11 36087 3613 2.5 81 32 1 2 37% 34404 5713 44%
c -  6.92  0 103 17 3416 10 40836 4133 2.6 77 30 1 2 27% 34404 5713 44%
c p  6.93  0 103 17 3416 10 40836 4376 2.6 77 30 1 2 27% 34404 5713 44%
c c  6.93  0 103 17 3416 10 40836 4375 2.6 77 30 1 2 27% 34384 5713 44%
c d  6.94  0 103 17 3416 10 40836 4374 2.6 77 30 1 2 27% 34370 5706 44%
c 2  6.94  0 103 17 3416 10 40836 4372 2.6 77 30 1 2 27% 34368 5706 44%
c #  7.21  0 104 17 3792 10 45023 8342 2.5 76 30 1 2 27% 34368 5706 44%
c -  7.27  0 104 18 3866 10 45888 4912 2.5 76 30 1 2 27% 34368 5706 44%
c p  7.28  0 104 18 3866 10 45888 5097 2.5 76 30 1 2 27% 34368 5706 44%
c u  7.28  0 104 18 3866 10 45888 4556 2.5 76 30 1 2 27% 34368 5706 44%
c v  7.28  0 104 18 3866 10 45888 4265 2.5 76 30 1 2 27% 34368 5706 44%
c w  7.28  0 104 18 3866 10 45888 4264 2.5 76 30 1 2 27% 34368 5706 44%
c 
c  seconds   reductions   conflicts       size   tier2      variables
c         MB      restarts     redundant     glue   trail        remaining
c           level       rate        size/glue  tier1  irredundant
c 
c x  7.29  0 104 18 3866 10 45888 4262 2.5 76 30 1 2 27% 34341 5706 44%
c }  7.65  0 103 18 4259 10 48520 6780 2.5 80 32 1 2 30% 34341 5706 44%
c [  7.65  0 106 18 4259  1 48520 6780 2.5 168 66 1 2 69% 34341 5706 44%
c ]  8.06  0 105 18 4261  1 50001 8224 2.6 174 67 1 2 70% 34341 5706 44%
c ?  8.07  0 105 18 4261  1 50001 8224 2.6 174 67 1 2 70% 34341 5706 44%
c 
c --- [ result ] -------------------------------------------------------------
c 
c UNKNOWN
c 
c --- [ run-time profiling ] -------------------------------------------------
c 
c process time taken by individual solving procedures
c (percentage relative to process time for solving)
c 
c         7.16   88.93% search
c         3.58   44.40% stable
c         3.47   43.09% unstable
c         0.89   11.04% simplify
c         0.34    4.21% sweep
c         0.17    2.05% vivify
c         0.11    1.41% factor
c         0.11    1.39% walk
c         0.11    1.38% congruence
c         0.06    0.73% preprocess
c         0.05    0.57% elim
c         0.02    0.28% subsume
c         0.02    0.19% fastelim
c         0.01    0.19% ternary
c         0.01    0.16% probe
c         0.01    0.10% parse
c         0.01    0.07% backbone
c         0.00    0.05% lucky
c   =================================
c         8.06   99.90% solve
c 
c last line shows process time for solving
c (percentage relative to total process time)
c 
c --- [ statistics ] ---------------------------------------------------------
c 
c chronological:             11409        22.82 %  of conflicts
c conflicts:                 50001      6206.12    per second
c backbone:                 342912      2622.65 %  of vars
c decisions:                371957     46167.26    per second
c eliminated:                 4534        34.68 %  of all variables
c factored:                    225         3.92 %  of variables
c fixed:                       641         4.90 %  of all variables
c learned:                   47315        94.63 %  per conflict
c learned_lits:           10180887       100.00 %  learned literals
c minimized:                     0         0.00 %  learned literals
c shrunken:                1055497        10.37 %  learned literals
c minishrunken:            4130945        40.58 %  learned literals
c otfs:                       1690         3.38 %  of conflict
c propagations:           70398629         8.74 M  per second
c reduced:                   29911        59.82 %  per conflict
c rephased:                      9      5555.67    interval
c restarts:                   4261        11.73    interval
c stabilizing:                  10        27.47 %  of conflicts
c substituted:                2194        16.78 %  of all variables
c sweep equivs:                559         8.75 %  of swept variables
c subsumed:                  12590         8.55 %  of all clauses
c strengthened:               5782         3.93 %  of all clauses
c ticks:                 472422525         6.88    propagation
c vivified:                   4834         3.28 %  of all clauses
c walked:                        2     25000.50    interval
c weakened:                  34022         2.89    average size
c congruence:                   10      5000.10    interval
c 
c seconds are measured in process time for solving
c 
c --- [ glue usage ] ---------------------------------------------------------
c 
c focused glue 1 used 374472 clauses 78.11% accumulated 78.11% tier1
c focused glue 2 used 50506 clauses 10.53% accumulated 88.65% tier2
c 
c stable glue 1 used 244650 clauses 75.51% accumulated 75.51% tier1
c stable glue 2 used 27886 clauses 8.607% accumulated 84.12% tier2
c 
c 
c --- [ resources ] ----------------------------------------------------------
c 
c total process time since initialization:         8.07    seconds
c total real time since initialization:            8.10    seconds
c maximum resident set size of process:        53552.00    MB
c 
c --- [ shutting down ] ------------------------------------------------------
c 
c exit 0
